Solver command line: []

Read LP format model from file C:\Users\wlhlm\AppData\Local\Temp\tmp8wh90idm.pyomo.lp
Reading time = 39.76 seconds
objective: 1002984 rows, 875999 columns, 78931926 nonzeros
Set parameter MIPGap to value 0.03
Gurobi Optimizer version 12.0.1 build v12.0.1rc0 (win64 - Windows 11.0 (26100.2))

CPU model: Intel(R) Core(TM) Ultra 7 258V, instruction set [SSE2|AVX|AVX2]
Thread count: 8 physical cores, 8 logical processors, using up to 8 threads

Non-default parameters:
MIPGap  0.03

Optimize a model with 1002984 rows, 875999 columns and 78931926 nonzeros
Model fingerprint: 0x18ea1370
Model has 8759 quadratic constraints
Variable types: 753360 continuous, 122639 integer (105120 binary)
Coefficient statistics:
  Matrix range     [6e-03, 2e+02]
  QMatrix range    [1e+00, 1e+00]
  Objective range  [1e-02, 4e+02]
  Bounds range     [1e+00, 3e+00]
  RHS range        [8e-05, 1e+04]
Presolve removed 140160 rows and 105120 columns (presolve time = 6s)...
Presolve removed 665581 rows and 529949 columns (presolve time = 10s)...
Presolve removed 696737 rows and 554330 columns (presolve time = 15s)...
Presolve removed 699231 rows and 556824 columns (presolve time = 20s)...
Presolve removed 701799 rows and 559392 columns (presolve time = 28s)...
Presolve removed 701799 rows and 559392 columns (presolve time = 31s)...
Presolve removed 710558 rows and 559392 columns (presolve time = 41s)...
Presolve removed 710558 rows and 559393 columns (presolve time = 45s)...
Presolve removed 710558 rows and 559393 columns (presolve time = 54s)...
Presolve removed 814848 rows and 663569 columns (presolve time = 55s)...
Presolve removed 806089 rows and 663569 columns
Presolve time: 55.11s
Presolved: 196895 rows, 212430 columns, 620386 nonzeros
Variable types: 149192 continuous, 63238 integer (63238 binary)
Performing another presolve...
Presolve removed 52561 rows and 52562 columns (presolve time = 6s)...
Presolve removed 52561 rows and 52562 columns
Presolve time: 5.64s
Deterministic concurrent LP optimizer: primal and dual simplex
Showing primal log only...


Root simplex log...

Iteration    Objective       Primal Inf.    Dual Inf.      Time
       0    5.4844860e+07   1.329189e+07   4.890678e+13     63s
   50758    5.2383102e+07   1.168028e+04   7.510916e+09     65s
Concurrent spin time: 0.00s

Solved with dual simplex

Root simplex log...

Iteration    Objective       Primal Inf.    Dual Inf.      Time
   55975    4.1100000e+07   0.000000e+00   0.000000e+00     66s

Root relaxation: objective 4.110000e+07, 55975 iterations, 4.01 seconds (5.09 work units)
Total elapsed time = 66.36s (DegenMoves)

    Nodes    |    Current Node    |     Objective Bounds      |     Work
 Expl Unexpl |  Obj  Depth IntInf | Incumbent    BestBd   Gap | It/Node Time

     0     0 4.1100e+07    0  760          - 4.1100e+07      -     -   69s
H    0     0                    5.345647e+07 4.1100e+07  23.1%     -   72s
     0     0 4.1108e+07    0  801 5.3456e+07 4.1108e+07  23.1%     -   75s
     0     0 4.1108e+07    0  792 5.3456e+07 4.1108e+07  23.1%     -   77s
     0     0 4.1108e+07    0  792 5.3456e+07 4.1108e+07  23.1%     -   78s
     0     0 4.1114e+07    0  700 5.3456e+07 4.1114e+07  23.1%     -   81s
H    0     0                    5.344224e+07 4.1114e+07  23.1%     -   82s
     0     0 4.1114e+07    0  637 5.3442e+07 4.1114e+07  23.1%     -   83s
     0     0 4.1114e+07    0  635 5.3442e+07 4.1114e+07  23.1%     -   83s
     0     0 4.1114e+07    0  632 5.3442e+07 4.1114e+07  23.1%     -   83s
     0     0 4.1114e+07    0  636 5.3442e+07 4.1114e+07  23.1%     -   84s
     0     0 4.1115e+07    0  564 5.3442e+07 4.1115e+07  23.1%     -   88s
     0     0 4.1115e+07    0  538 5.3442e+07 4.1115e+07  23.1%     -   90s
     0     0 4.1115e+07    0  537 5.3442e+07 4.1115e+07  23.1%     -   90s
     0     0 4.1115e+07    0  537 5.3442e+07 4.1115e+07  23.1%     -   90s
     0     0 4.1115e+07    0  515 5.3442e+07 4.1115e+07  23.1%     -   94s
     0     0 4.1115e+07    0  511 5.3442e+07 4.1115e+07  23.1%     -   95s
     0     0 4.1115e+07    0  512 5.3442e+07 4.1115e+07  23.1%     -   96s
     0     0 4.1115e+07    0  529 5.3442e+07 4.1115e+07  23.1%     -   97s
     0     0 4.1115e+07    0  524 5.3442e+07 4.1115e+07  23.1%     -   99s
     0     0 4.1115e+07    0  520 5.3442e+07 4.1115e+07  23.1%     -  100s
H    0     0                    5.326867e+07 4.1115e+07  22.8%     -  102s
H    0     0                    5.326748e+07 4.1115e+07  22.8%     -  102s
     0     0 4.1115e+07    0  517 5.3267e+07 4.1115e+07  22.8%     -  102s
     0     0 4.1115e+07    0  507 5.3267e+07 4.1115e+07  22.8%     -  104s
     0     0 4.1115e+07    0  521 5.3267e+07 4.1115e+07  22.8%     -  106s
     0     0 4.1115e+07    0  521 5.3267e+07 4.1115e+07  22.8%     -  107s
     0     0 4.1115e+07    0  428 5.3267e+07 4.1115e+07  22.8%     -  110s
H    0     0                    5.312976e+07 4.1115e+07  22.6%     -  112s
H    0     2                    5.276451e+07 4.1115e+07  22.1%     -  116s
     0     2 4.1115e+07    0  416 5.2765e+07 4.1115e+07  22.1%     -  116s
    23    65 4.1120e+07    5  446 5.2765e+07 4.1115e+07  22.1%  96.8  120s
H   65    76                    5.252582e+07 4.1115e+07  21.7%  44.6  123s
   102   129 4.1120e+07   11  429 5.2526e+07 4.1115e+07  21.7%  37.6  126s
H  213   222                    5.206411e+07 4.1115e+07  21.0%  22.5  140s
H  217   222                    5.205608e+07 4.1115e+07  21.0%  22.1  140s
   380   637 4.1120e+07   30  410 5.2056e+07 4.1115e+07  21.0%  15.4  149s
   636  1461 4.1120e+07   50  401 5.2056e+07 4.1115e+07  21.0%  12.2  159s
   842  1461 4.1117e+07   54  391 5.2056e+07 4.1115e+07  21.0%   9.6  160s
  1460  1469 4.1120e+07  146  400 5.2056e+07 4.1115e+07  21.0%   6.3  169s
H 1464  1469                    5.189853e+07 4.1115e+07  20.8%   6.3  169s
  1468  1988 4.1120e+07  147  400 5.1899e+07 4.1115e+07  20.8%   6.2  177s
  1987  1996 4.1121e+07  204  402 5.1899e+07 4.1115e+07  20.8%   5.9  188s
H 1988  1996                    4.559465e+07 4.1115e+07  9.82%   5.9  188s
H 1990  1996                    4.546972e+07 4.1115e+07  9.58%   5.9  188s
  1995  2076 4.1121e+07  205  404 4.5470e+07 4.1115e+07  9.58%   5.9  194s
  2075  2539 4.1121e+07  211  404 4.5470e+07 4.1115e+07  9.58%   5.8  201s
H 2538  2547                    4.538871e+07 4.1115e+07  9.41%   5.5  234s
H 2540  2547                    4.526379e+07 4.1115e+07  9.16%   5.5  234s
H 2544  2547                    4.522316e+07 4.1115e+07  9.08%   5.5  234s
  2546  3073 4.1122e+07  251  405 4.5223e+07 4.1115e+07  9.08%   5.5  244s
  3072  3612 4.1122e+07  307  407 4.5223e+07 4.1115e+07  9.08%   5.1  254s
  3199  3612 4.1119e+07  303  391 4.5223e+07 4.1115e+07  9.08%   5.2  255s
H 3611  3620                    4.518660e+07 4.1115e+07  9.01%   5.1  268s
H 3612  3620                    4.465465e+07 4.1115e+07  7.93%   5.1  268s
H 3615  3620                    4.461981e+07 4.1115e+07  7.85%   5.1  268s
H 3617  3620                    4.461711e+07 4.1115e+07  7.85%   5.1  268s
H 3618  3620                    4.461647e+07 4.1115e+07  7.85%   5.1  268s
  3619  4133 4.1123e+07  354  388 4.4616e+07 4.1115e+07  7.85%   5.1  273s
  4132  4141 4.1123e+07  393  367 4.4616e+07 4.1115e+07  7.85%   5.3  284s
H 4134  4141                    4.322339e+07 4.1115e+07  4.88%   5.3  285s
H 4136  4141                    4.321943e+07 4.1115e+07  4.87%   5.3  285s
  4140  4622 4.1123e+07  394  366 4.3219e+07 4.1115e+07  4.87%   5.3  291s
  4621  5249 4.1124e+07  448  343 4.3219e+07 4.1115e+07  4.87%   5.3  298s
  5248  5739 4.1125e+07  508  339 4.3219e+07 4.1115e+07  4.87%   5.2  303s
  5738  6212 4.1125e+07  537  338 4.3219e+07 4.1115e+07  4.87%   5.1  310s
  6211  6697 4.1125e+07  576  328 4.3219e+07 4.1115e+07  4.87%   5.1  316s
  6696  7091 4.1125e+07  633  329 4.3219e+07 4.1115e+07  4.87%   5.0  324s
  7090  7806 4.1125e+07  661  329 4.3219e+07 4.1115e+07  4.87%   4.9  332s
H 7805  7806                    4.320009e+07 4.1115e+07  4.83%   4.7  340s
H 7805  7806                    4.311267e+07 4.1115e+07  4.63%   4.7  341s
H 7805  7806                    4.302120e+07 4.1115e+07  4.43%   4.7  344s
H 7805  7806                    4.294299e+07 4.1115e+07  4.26%   4.7  345s
H 7805  7806                    4.284733e+07 4.1115e+07  4.04%   4.7  346s
H 7805  7806                    4.271751e+07 4.1115e+07  3.75%   4.7  348s
  7806  7807 4.1118e+07  301 18480 4.2718e+07 4.1115e+07  3.75%   4.7  362s
  7808  7808 4.1125e+07  541  741 4.2718e+07 4.1115e+07  3.75%   4.7  372s
  7809  7809 4.1123e+07  372  620 4.2718e+07 4.1115e+07  3.75%   4.7  376s
  7810  7810 4.1122e+07  679  526 4.2718e+07 4.1115e+07  3.75%   4.7  381s
  7814  7812 4.1125e+07  638  516 4.2718e+07 4.1115e+07  3.75%   4.7  385s
  7816  7814 4.1122e+07  110  462 4.2718e+07 4.1116e+07  3.75%   4.7  390s
  7819  7816 4.1117e+07  186  453 4.2718e+07 4.1116e+07  3.75%   4.7  395s
H 7820  7424                    4.270208e+07 4.1116e+07  3.71%   4.7  401s
  7825  7428 4.1118e+07  240  476 4.2702e+07 4.1116e+07  3.71%   4.7  405s
  7827  7429 4.1117e+07   36  497 4.2702e+07 4.1116e+07  3.71%   4.7  410s
H 7827  7058                    4.268961e+07 4.1116e+07  3.69%   4.7  412s
  7830  7060 4.1122e+07  206  471 4.2690e+07 4.1116e+07  3.69%   4.7  416s
  7832  7061 4.1117e+07  120  462 4.2690e+07 4.1116e+07  3.69%   4.7  421s
  7834  7063 4.1120e+07  423  466 4.2690e+07 4.1116e+07  3.69%   4.7  426s
H 7834  6709                    4.263976e+07 4.1116e+07  3.57%   4.7  429s
H 7834  6373                    4.263908e+07 4.1116e+07  3.57%   4.7  429s
  7836  6374 4.1125e+07  516  482 4.2639e+07 4.1117e+07  3.57%   4.7  430s
  7841  6377 4.1122e+07  560  483 4.2639e+07 4.1117e+07  3.57%   4.7  439s
  7842  6378 4.1117e+07  188  479 4.2639e+07 4.1117e+07  3.57%   4.7  440s
  7843  6379 4.1117e+07  114  372 4.2639e+07 4.1117e+07  3.57%   4.7  447s
H 7843  6059                    4.263684e+07 4.1117e+07  3.57%   4.7  449s
H 7843  5756                    4.263118e+07 4.1117e+07  3.55%   4.7  449s
  7845  5760 4.1120e+07   14  360 4.2631e+07 4.1117e+07  3.55%  15.6  452s
  7851  5770 4.1120e+07   16  387 4.2631e+07 4.1117e+07  3.55%  15.6  455s
H 7870  5515                    4.262389e+07 4.1117e+07  3.54%  15.8  459s
H 7898  5231                    4.262091e+07 4.1117e+07  3.53%  15.8  459s
  7899  5242 4.1123e+07   20  380 4.2621e+07 4.1117e+07  3.53%  15.8  460s
  7932  5261 4.1122e+07   22  385 4.2621e+07 4.1117e+07  3.53%  15.9  465s
H 7933  5001                    4.261414e+07 4.1117e+07  3.51%  15.9  465s
H 7934  4753                    4.260510e+07 4.1117e+07  3.49%  15.9  465s
  7966  4794 4.1122e+07   24  384 4.2605e+07 4.1117e+07  3.49%  15.9  470s
  8015  4814 4.1122e+07   27  371 4.2605e+07 4.1117e+07  3.49%  15.9  481s
H 8021  4577                    4.259696e+07 4.1117e+07  3.48%  15.9  481s
H 8026  4353                    4.259049e+07 4.1117e+07  3.46%  15.9  481s
  8085  4443 4.1122e+07   33  351 4.2590e+07 4.1117e+07  3.46%  15.9  489s
H 8092  4228                    4.254041e+07 4.1117e+07  3.35%  15.9  489s
  8138  4316 4.1122e+07   37  345 4.2540e+07 4.1117e+07  3.35%  15.9  495s
  8242  4394 4.1122e+07   43  332 4.2540e+07 4.1117e+07  3.35%  16.0  503s
  8354  4501 4.1122e+07   50  325 4.2540e+07 4.1117e+07  3.35%  16.3  512s
  8507  4658 4.1122e+07   60  311 4.2540e+07 4.1117e+07  3.35%  16.3  523s
H 8576  4434                    4.117573e+07 4.1117e+07  0.14%  16.3  523s

Cutting planes:
  Learned: 2
  Gomory: 287
  Cover: 317
  Implied bound: 122
  Projected implied bound: 116
  MIR: 1475
  Mixing: 17
  Flow cover: 848
  Flow path: 14
  GUB cover: 1
  RLT: 68
  Relax-and-lift: 261

Explored 8715 nodes (218544 simplex iterations) in 525.21 seconds (362.18 work units)
Thread count was 8 (of 8 available processors)

Solution count 10: 4.11757e+07 4.25404e+07 4.2597e+07 ... 4.26391e+07

Optimal solution found (tolerance 3.00e-02)
Best objective 4.117573405120e+07, best bound 4.111667623182e+07, gap 0.1434%

